c "719064.clq"
p edge 203 2992
e 1 17
e 1 18
e 1 19
e 1 20
e 1 21
e 1 23
e 1 25
e 1 27
e 1 28
e 1 34
e 1 35
e 1 40
e 1 41
e 1 43
e 1 45
e 1 51
e 1 52
e 1 55
e 1 57
e 1 61
e 1 63
e 1 71
e 1 82
e 1 83
e 1 87
e 1 89
e 1 90
e 1 102
e 1 104
e 1 106
e 1 109
e 1 125
e 1 132
e 1 138
e 1 145
e 1 154
e 1 155
e 1 156
e 1 157
e 1 178
e 1 179
e 1 181
e 1 182
e 1 195
e 1 198
e 2 17
e 2 18
e 2 19
e 2 20
e 2 21
e 2 22
e 2 23
e 2 24
e 2 25
e 2 26
e 2 27
e 2 29
e 2 30
e 2 32
e 2 33
e 2 37
e 2 43
e 2 46
e 2 47
e 2 50
e 2 60
e 2 70
e 2 76
e 2 88
e 2 93
e 2 99
e 2 107
e 2 111
e 2 125
e 2 126
e 2 127
e 2 136
e 2 200
e 3 17
e 3 18
e 3 19
e 3 20
e 3 22
e 3 23
e 3 29
e 3 45
e 3 75
e 3 78
e 3 80
e 3 83
e 3 86
e 3 95
e 3 97
e 3 100
e 3 115
e 3 149
e 3 155
e 3 162
e 3 177
e 3 185
e 4 17
e 4 18
e 4 19
e 4 21
e 4 22
e 4 23
e 4 24
e 4 25
e 4 26
e 4 27
e 4 28
e 4 31
e 4 32
e 4 33
e 4 38
e 4 42
e 4 43
e 4 44
e 4 45
e 4 47
e 4 49
e 4 54
e 4 62
e 4 64
e 4 65
e 4 69
e 4 77
e 4 78
e 4 87
e 4 91
e 4 97
e 4 105
e 4 112
e 4 114
e 4 124
e 4 144
e 4 153
e 4 154
e 4 163
e 4 168
e 4 173
e 4 182
e 4 183
e 4 190
e 5 17
e 5 18
e 5 19
e 5 20
e 5 26
e 5 28
e 5 31
e 5 32
e 5 42
e 5 47
e 5 50
e 5 53
e 5 57
e 5 80
e 5 123
e 5 129
e 5 152
e 5 154
e 5 156
e 5 159
e 5 161
e 5 198
e 6 17
e 6 18
e 6 19
e 6 20
e 6 21
e 6 22
e 6 23
e 6 25
e 6 26
e 6 27
e 6 29
e 6 30
e 6 33
e 6 34
e 6 42
e 6 46
e 6 48
e 6 51
e 6 55
e 6 59
e 6 64
e 6 76
e 6 84
e 6 86
e 6 99
e 6 103
e 6 109
e 6 110
e 6 111
e 6 112
e 6 136
e 6 141
e 6 149
e 6 150
e 6 162
e 6 188
e 6 190
e 6 197
e 7 17
e 7 18
e 7 19
e 7 20
e 7 21
e 7 22
e 7 23
e 7 24
e 7 27
e 7 28
e 7 30
e 7 33
e 7 35
e 7 36
e 7 39
e 7 44
e 7 48
e 7 53
e 7 58
e 7 61
e 7 67
e 7 75
e 7 79
e 7 80
e 7 82
e 7 83
e 7 85
e 7 92
e 7 93
e 7 102
e 7 103
e 7 107
e 7 113
e 7 125
e 7 129
e 7 136
e 7 140
e 7 156
e 7 164
e 7 165
e 7 169
e 7 184
e 7 185
e 7 189
e 7 193
e 7 195
e 7 200
e 8 17
e 8 18
e 8 19
e 8 20
e 8 21
e 8 22
e 8 23
e 8 24
e 8 25
e 8 26
e 8 28
e 8 30
e 8 32
e 8 34
e 8 36
e 8 38
e 8 40
e 8 46
e 8 49
e 8 51
e 8 53
e 8 54
e 8 61
e 8 65
e 8 79
e 8 83
e 8 87
e 8 98
e 8 101
e 8 111
e 8 112
e 8 114
e 8 120
e 8 127
e 8 132
e 8 143
e 8 146
e 8 153
e 8 154
e 8 155
e 8 158
e 8 165
e 8 167
e 8 168
e 8 178
e 8 179
e 8 184
e 8 189
e 9 17
e 9 18
e 9 19
e 9 20
e 9 21
e 9 22
e 9 23
e 9 24
e 9 25
e 9 26
e 9 28
e 9 29
e 9 30
e 9 31
e 9 35
e 9 36
e 9 37
e 9 38
e 9 39
e 9 40
e 9 41
e 9 47
e 9 50
e 9 51
e 9 53
e 9 54
e 9 64
e 9 66
e 9 68
e 9 72
e 9 73
e 9 74
e 9 78
e 9 89
e 9 94
e 9 95
e 9 104
e 9 105
e 9 116
e 9 130
e 9 132
e 9 134
e 9 136
e 9 141
e 9 145
e 9 146
e 9 150
e 9 152
e 9 154
e 9 171
e 9 173
e 9 183
e 9 187
e 9 196
e 10 17
e 10 18
e 10 19
e 10 20
e 10 21
e 10 22
e 10 24
e 10 25
e 10 26
e 10 27
e 10 33
e 10 34
e 10 36
e 10 38
e 10 40
e 10 41
e 10 51
e 10 52
e 10 53
e 10 55
e 10 56
e 10 60
e 10 62
e 10 63
e 10 67
e 10 69
e 10 71
e 10 92
e 10 93
e 10 94
e 10 95
e 10 102
e 10 103
e 10 109
e 10 110
e 10 118
e 10 133
e 10 135
e 10 157
e 10 170
e 10 177
e 10 193
e 11 17
e 11 18
e 11 19
e 11 20
e 11 21
e 11 22
e 11 24
e 11 25
e 11 29
e 11 30
e 11 32
e 11 38
e 11 41
e 11 44
e 11 48
e 11 50
e 11 52
e 11 54
e 11 57
e 11 58
e 11 61
e 11 65
e 11 71
e 11 72
e 11 74
e 11 76
e 11 78
e 11 84
e 11 85
e 11 86
e 11 94
e 11 97
e 11 98
e 11 102
e 11 103
e 11 104
e 11 106
e 11 111
e 11 112
e 11 116
e 11 119
e 11 122
e 11 124
e 11 126
e 11 127
e 11 139
e 11 152
e 11 158
e 11 162
e 11 166
e 11 168
e 11 169
e 11 186
e 11 189
e 12 17
e 12 18
e 12 19
e 12 21
e 12 38
e 12 42
e 12 52
e 12 56
e 12 67
e 12 77
e 12 87
e 12 93
e 12 139
e 12 141
e 12 191
e 13 17
e 13 18
e 13 19
e 13 20
e 13 21
e 13 22
e 13 23
e 13 24
e 13 26
e 13 27
e 13 28
e 13 29
e 13 31
e 13 32
e 13 34
e 13 35
e 13 36
e 13 37
e 13 41
e 13 43
e 13 45
e 13 46
e 13 48
e 13 50
e 13 52
e 13 57
e 13 59
e 13 60
e 13 61
e 13 63
e 13 64
e 13 66
e 13 67
e 13 78
e 13 81
e 13 82
e 13 85
e 13 86
e 13 91
e 13 97
e 13 98
e 13 108
e 13 121
e 13 124
e 13 128
e 13 130
e 13 134
e 13 136
e 13 137
e 13 139
e 13 141
e 13 144
e 13 146
e 13 147
e 13 156
e 13 183
e 13 185
e 13 189
e 13 198
e 13 199
e 13 201
e 13 202
e 14 17
e 14 18
e 14 19
e 14 20
e 14 21
e 14 22
e 14 23
e 14 24
e 14 26
e 14 33
e 14 34
e 14 40
e 14 42
e 14 45
e 14 47
e 14 49
e 14 53
e 14 54
e 14 55
e 14 62
e 14 75
e 14 91
e 14 98
e 14 103
e 14 105
e 14 144
e 14 182
e 14 187
e 15 17
e 15 18
e 15 29
e 15 33
e 15 35
e 15 37
e 15 39
e 15 51
e 15 70
e 15 75
e 15 79
e 15 96
e 15 103
e 15 106
e 15 119
e 15 123
e 15 140
e 15 161
e 15 180
e 15 200
e 16 17
e 16 20
e 16 28
e 16 32
e 16 35
e 16 39
e 16 44
e 16 47
e 16 48
e 16 55
e 16 59
e 16 74
e 16 90
e 16 124
e 16 125
e 16 135
e 16 143
e 16 162
e 16 198
e 16 200
e 17 18
e 17 19
e 17 20
e 17 21
e 17 22
e 17 23
e 17 24
e 17 25
e 17 26
e 17 27
e 17 28
e 17 30
e 17 31
e 17 33
e 17 35
e 17 38
e 17 39
e 17 40
e 17 41
e 17 43
e 17 44
e 17 46
e 17 47
e 17 48
e 17 50
e 17 52
e 17 54
e 17 57
e 17 58
e 17 59
e 17 60
e 17 61
e 17 63
e 17 66
e 17 73
e 17 74
e 17 77
e 17 80
e 17 81
e 17 83
e 17 86
e 17 88
e 17 96
e 17 98
e 17 103
e 17 104
e 17 105
e 17 106
e 17 111
e 17 115
e 17 117
e 17 118
e 17 123
e 17 125
e 17 131
e 17 134
e 17 140
e 17 143
e 17 166
e 17 172
e 17 177
e 17 181
e 17 184
e 17 189
e 17 192
e 17 193
e 17 196
e 17 198
e 17 200
e 18 19
e 18 20
e 18 21
e 18 22
e 18 23
e 18 24
e 18 25
e 18 26
e 18 27
e 18 28
e 18 29
e 18 30
e 18 31
e 18 32
e 18 34
e 18 35
e 18 36
e 18 37
e 18 39
e 18 43
e 18 44
e 18 47
e 18 49
e 18 50
e 18 51
e 18 53
e 18 57
e 18 58
e 18 60
e 18 61
e 18 65
e 18 68
e 18 71
e 18 72
e 18 73
e 18 74
e 18 77
e 18 79
e 18 81
e 18 83
e 18 86
e 18 88
e 18 89
e 18 90
e 18 92
e 18 93
e 18 96
e 18 100
e 18 112
e 18 118
e 18 120
e 18 122
e 18 123
e 18 125
e 18 127
e 18 128
e 18 138
e 18 139
e 18 141
e 18 142
e 18 144
e 18 148
e 18 151
e 18 154
e 18 168
e 18 171
e 18 175
e 18 176
e 18 188
e 18 191
e 18 199
e 18 200
e 18 201
e 18 202
e 19 20
e 19 21
e 19 22
e 19 23
e 19 24
e 19 25
e 19 26
e 19 27
e 19 28
e 19 29
e 19 30
e 19 31
e 19 32
e 19 34
e 19 35
e 19 36
e 19 37
e 19 38
e 19 39
e 19 40
e 19 42
e 19 43
e 19 44
e 19 45
e 19 48
e 19 49
e 19 52
e 19 53
e 19 56
e 19 63
e 19 64
e 19 66
e 19 68
e 19 70
e 19 71
e 19 74
e 19 81
e 19 85
e 19 88
e 19 92
e 19 98
e 19 106
e 19 111
e 19 113
e 19 119
e 19 120
e 19 123
e 19 127
e 19 131
e 19 134
e 19 137
e 19 138
e 19 144
e 19 145
e 19 146
e 19 147
e 19 161
e 19 168
e 19 171
e 19 178
e 19 185
e 19 190
e 19 191
e 19 194
e 19 199
e 19 203
e 20 21
e 20 22
e 20 23
e 20 24
e 20 25
e 20 26
e 20 28
e 20 29
e 20 30
e 20 31
e 20 32
e 20 33
e 20 34
e 20 35
e 20 36
e 20 37
e 20 38
e 20 39
e 20 40
e 20 42
e 20 43
e 20 44
e 20 46
e 20 49
e 20 54
e 20 55
e 20 56
e 20 57
e 20 58
e 20 59
e 20 60
e 20 61
e 20 62
e 20 65
e 20 66
e 20 69
e 20 70
e 20 72
e 20 74
e 20 76
e 20 78
e 20 82
e 20 91
e 20 94
e 20 100
e 20 101
e 20 102
e 20 108
e 20 109
e 20 111
e 20 112
e 20 113
e 20 116
e 20 117
e 20 118
e 20 124
e 20 133
e 20 135
e 20 136
e 20 145
e 20 147
e 20 151
e 20 158
e 20 167
e 20 173
e 20 176
e 20 177
e 20 183
e 20 184
e 20 187
e 20 188
e 20 189
e 20 190
e 20 191
e 20 194
e 20 197
e 20 203
e 21 22
e 21 23
e 21 24
e 21 25
e 21 27
e 21 28
e 21 29
e 21 31
e 21 32
e 21 33
e 21 34
e 21 36
e 21 38
e 21 39
e 21 40
e 21 41
e 21 42
e 21 44
e 21 45
e 21 46
e 21 47
e 21 48
e 21 49
e 21 50
e 21 51
e 21 52
e 21 58
e 21 60
e 21 64
e 21 65
e 21 66
e 21 69
e 21 72
e 21 80
e 21 82
e 21 83
e 21 89
e 21 90
e 21 93
e 21 94
e 21 103
e 21 105
e 21 107
e 21 108
e 21 109
e 21 113
e 21 115
e 21 130
e 21 131
e 21 133
e 21 134
e 21 135
e 21 140
e 21 145
e 21 151
e 21 153
e 21 158
e 21 160
e 21 163
e 21 164
e 21 166
e 21 168
e 21 171
e 21 179
e 21 182
e 21 187
e 21 198
e 21 203
e 22 23
e 22 24
e 22 25
e 22 26
e 22 27
e 22 28
e 22 30
e 22 31
e 22 34
e 22 35
e 22 36
e 22 37
e 22 40
e 22 42
e 22 44
e 22 45
e 22 47
e 22 52
e 22 54
e 22 56
e 22 57
e 22 59
e 22 60
e 22 61
e 22 62
e 22 66
e 22 68
e 22 69
e 22 70
e 22 73
e 22 77
e 22 79
e 22 81
e 22 84
e 22 85
e 22 86
e 22 88
e 22 92
e 22 93
e 22 94
e 22 104
e 22 105
e 22 108
e 22 111
e 22 119
e 22 125
e 22 126
e 22 129
e 22 143
e 22 147
e 22 153
e 22 155
e 22 159
e 22 165
e 22 169
e 22 174
e 22 180
e 22 181
e 22 184
e 22 186
e 22 187
e 22 188
e 22 191
e 22 196
e 23 24
e 23 25
e 23 26
e 23 27
e 23 29
e 23 30
e 23 32
e 23 33
e 23 35
e 23 36
e 23 37
e 23 39
e 23 41
e 23 43
e 23 45
e 23 48
e 23 52
e 23 56
e 23 62
e 23 63
e 23 64
e 23 65
e 23 66
e 23 67
e 23 68
e 23 69
e 23 71
e 23 72
e 23 74
e 23 75
e 23 76
e 23 78
e 23 81
e 23 83
e 23 87
e 23 90
e 23 91
e 23 95
e 23 98
e 23 101
e 23 102
e 23 107
e 23 110
e 23 115
e 23 118
e 23 121
e 23 126
e 23 132
e 23 146
e 23 151
e 23 161
e 23 162
e 23 166
e 23 168
e 23 173
e 23 176
e 23 191
e 23 195
e 23 196
e 23 199
e 23 203
e 24 25
e 24 27
e 24 28
e 24 30
e 24 31
e 24 32
e 24 33
e 24 35
e 24 38
e 24 40
e 24 42
e 24 46
e 24 48
e 24 49
e 24 50
e 24 51
e 24 52
e 24 54
e 24 56
e 24 57
e 24 58
e 24 63
e 24 67
e 24 69
e 24 76
e 24 77
e 24 79
e 24 80
e 24 83
e 24 84
e 24 86
e 24 87
e 24 90
e 24 91
e 24 96
e 24 102
e 24 106
e 24 107
e 24 109
e 24 111
e 24 112
e 24 118
e 24 121
e 24 122
e 24 130
e 24 133
e 24 134
e 24 135
e 24 145
e 24 149
e 24 152
e 24 156
e 24 161
e 24 166
e 24 167
e 24 185
e 24 188
e 24 192
e 24 201
e 25 26
e 25 27
e 25 29
e 25 30
e 25 33
e 25 36
e 25 37
e 25 39
e 25 41
e 25 53
e 25 54
e 25 56
e 25 57
e 25 63
e 25 64
e 25 67
e 25 68
e 25 69
e 25 75
e 25 77
e 25 78
e 25 82
e 25 85
e 25 89
e 25 95
e 25 99
e 25 105
e 25 106
e 25 114
e 25 117
e 25 120
e 25 121
e 25 128
e 25 129
e 25 133
e 25 135
e 25 139
e 25 148
e 25 153
e 25 165
e 25 174
e 25 178
e 25 188
e 25 192
e 26 27
e 26 28
e 26 29
e 26 31
e 26 33
e 26 34
e 26 37
e 26 39
e 26 40
e 26 41
e 26 42
e 26 46
e 26 47
e 26 49
e 26 51
e 26 56
e 26 58
e 26 59
e 26 64
e 26 70
e 26 72
e 26 74
e 26 76
e 26 84
e 26 87
e 26 91
e 26 109
e 26 115
e 26 117
e 26 124
e 26 136
e 26 137
e 26 138
e 26 147
e 26 152
e 26 153
e 26 157
e 26 159
e 26 168
e 26 171
e 26 174
e 26 176
e 26 180
e 26 195
e 26 202
e 27 29
e 27 30
e 27 31
e 27 33
e 27 35
e 27 36
e 27 37
e 27 38
e 27 41
e 27 43
e 27 45
e 27 46
e 27 48
e 27 49
e 27 50
e 27 52
e 27 53
e 27 55
e 27 57
e 27 58
e 27 59
e 27 62
e 27 63
e 27 64
e 27 67
e 27 72
e 27 75
e 27 77
e 27 81
e 27 83
e 27 89
e 27 105
e 27 106
e 27 113
e 27 118
e 27 120
e 27 122
e 27 128
e 27 135
e 27 143
e 27 146
e 27 154
e 27 155
e 27 157
e 27 163
e 27 164
e 27 172
e 27 174
e 27 175
e 27 189
e 27 196
e 28 29
e 28 30
e 28 31
e 28 35
e 28 37
e 28 38
e 28 39
e 28 40
e 28 41
e 28 42
e 28 43
e 28 45
e 28 46
e 28 51
e 28 55
e 28 71
e 28 76
e 28 78
e 28 82
e 28 83
e 28 84
e 28 92
e 28 95
e 28 96
e 28 99
e 28 103
e 28 104
e 28 111
e 28 112
e 28 118
e 28 125
e 28 126
e 28 135
e 28 137
e 28 138
e 28 142
e 28 146
e 28 150
e 28 157
e 28 162
e 28 167
e 28 172
e 28 173
e 28 179
e 28 183
e 28 186
e 28 194
e 28 195
e 28 197
e 28 203
e 29 31
e 29 32
e 29 33
e 29 34
e 29 37
e 29 41
e 29 48
e 29 49
e 29 56
e 29 61
e 29 63
e 29 69
e 29 75
e 29 82
e 29 93
e 29 95
e 29 103
e 29 104
e 29 114
e 29 117
e 29 119
e 29 128
e 29 134
e 29 136
e 29 146
e 29 147
e 29 164
e 29 170
e 29 177
e 29 179
e 29 187
e 29 193
e 29 199
e 30 31
e 30 32
e 30 36
e 30 40
e 30 44
e 30 49
e 30 50
e 30 51
e 30 54
e 30 65
e 30 66
e 30 70
e 30 73
e 30 74
e 30 75
e 30 81
e 30 82
e 30 88
e 30 89
e 30 112
e 30 120
e 30 131
e 30 138
e 30 153
e 30 160
e 30 166
e 30 168
e 30 171
e 30 172
e 30 175
e 30 181
e 30 182
e 30 200
e 31 32
e 31 34
e 31 35
e 31 37
e 31 38
e 31 40
e 31 44
e 31 46
e 31 48
e 31 53
e 31 59
e 31 60
e 31 63
e 31 65
e 31 66
e 31 85
e 31 86
e 31 94
e 31 101
e 31 102
e 31 107
e 31 110
e 31 121
e 31 124
e 31 130
e 31 133
e 31 140
e 31 154
e 31 158
e 31 170
e 31 179
e 31 180
e 32 34
e 32 36
e 32 39
e 32 41
e 32 42
e 32 45
e 32 48
e 32 49
e 32 52
e 32 54
e 32 55
e 32 58
e 32 60
e 32 61
e 32 68
e 32 69
e 32 70
e 32 71
e 32 78
e 32 79
e 32 80
e 32 87
e 32 93
e 32 96
e 32 104
e 32 106
e 32 108
e 32 109
e 32 114
e 32 128
e 32 130
e 32 134
e 32 143
e 32 164
e 32 172
e 32 178
e 32 179
e 32 180
e 32 185
e 32 196
e 32 201
e 32 202
e 33 34
e 33 38
e 33 39
e 33 44
e 33 45
e 33 47
e 33 49
e 33 51
e 33 52
e 33 53
e 33 54
e 33 55
e 33 59
e 33 66
e 33 67
e 33 70
e 33 76
e 33 80
e 33 106
e 33 107
e 33 123
e 33 128
e 33 180
e 33 183
e 33 192
e 34 36
e 34 42
e 34 43
e 34 47
e 34 48
e 34 52
e 34 54
e 34 77
e 34 82
e 34 87
e 34 89
e 34 90
e 34 99
e 34 101
e 34 109
e 34 110
e 34 112
e 34 119
e 34 123
e 34 128
e 34 135
e 34 137
e 34 147
e 34 157
e 34 162
e 34 179
e 34 186
e 35 41
e 35 58
e 35 62
e 35 68
e 35 74
e 35 76
e 35 86
e 35 88
e 35 94
e 35 96
e 35 103
e 35 121
e 35 139
e 35 148
e 35 153
e 35 194
e 35 197
e 35 203
e 36 37
e 36 38
e 36 42
e 36 43
e 36 44
e 36 45
e 36 46
e 36 48
e 36 55
e 36 62
e 36 65
e 36 71
e 36 72
e 36 73
e 36 75
e 36 79
e 36 80
e 36 81
e 36 82
e 36 83
e 36 84
e 36 85
e 36 88
e 36 92
e 36 95
e 36 96
e 36 98
e 36 99
e 36 105
e 36 106
e 36 109
e 36 110
e 36 113
e 36 116
e 36 121
e 36 132
e 36 134
e 36 139
e 36 146
e 36 147
e 36 150
e 36 152
e 36 157
e 36 161
e 36 164
e 36 167
e 36 172
e 36 173
e 36 183
e 36 196
e 36 203
e 37 39
e 37 40
e 37 44
e 37 53
e 37 60
e 37 61
e 37 65
e 37 69
e 37 82
e 37 87
e 37 90
e 37 93
e 37 98
e 37 99
e 37 100
e 37 105
e 37 109
e 37 117
e 37 122
e 37 123
e 37 125
e 37 154
e 37 157
e 37 158
e 37 171
e 37 185
e 37 187
e 37 190
e 37 194
e 38 47
e 38 50
e 38 54
e 38 55
e 38 63
e 38 68
e 38 71
e 38 74
e 38 82
e 38 89
e 38 97
e 38 101
e 38 109
e 38 116
e 38 118
e 38 126
e 38 127
e 38 130
e 38 132
e 38 152
e 38 154
e 38 156
e 38 157
e 38 162
e 38 163
e 38 164
e 38 167
e 38 180
e 38 183
e 39 42
e 39 43
e 39 60
e 39 63
e 39 66
e 39 68
e 39 71
e 39 76
e 39 84
e 39 90
e 39 97
e 39 99
e 39 102
e 39 112
e 39 116
e 39 119
e 39 122
e 39 123
e 39 141
e 39 143
e 39 161
e 39 167
e 39 172
e 39 176
e 39 181
e 39 188
e 39 203
e 40 41
e 40 43
e 40 49
e 40 50
e 40 51
e 40 53
e 40 55
e 40 56
e 40 57
e 40 58
e 40 60
e 40 61
e 40 65
e 40 70
e 40 75
e 40 77
e 40 84
e 40 88
e 40 92
e 40 104
e 40 105
e 40 116
e 40 119
e 40 125
e 40 129
e 40 131
e 40 135
e 40 142
e 40 150
e 40 154
e 40 158
e 40 164
e 40 171
e 40 172
e 40 175
e 40 185
e 40 192
e 40 195
e 41 44
e 41 45
e 41 46
e 41 56
e 41 59
e 41 64
e 41 67
e 41 78
e 41 79
e 41 81
e 41 84
e 41 88
e 41 93
e 41 100
e 41 104
e 41 108
e 41 117
e 41 125
e 41 142
e 41 145
e 41 148
e 41 151
e 41 159
e 41 164
e 41 165
e 41 166
e 41 182
e 41 190
e 41 193
e 42 43
e 42 46
e 42 47
e 42 53
e 42 58
e 42 59
e 42 60
e 42 63
e 42 64
e 42 67
e 42 68
e 42 82
e 42 85
e 42 88
e 42 92
e 42 94
e 42 103
e 42 107
e 42 108
e 42 115
e 42 123
e 42 127
e 42 132
e 42 136
e 42 139
e 42 143
e 42 144
e 42 148
e 42 158
e 42 165
e 42 174
e 42 182
e 42 191
e 42 196
e 42 197
e 42 203
e 43 46
e 43 56
e 43 61
e 43 71
e 43 77
e 43 80
e 43 100
e 43 108
e 43 121
e 43 133
e 43 149
e 43 153
e 43 159
e 43 175
e 43 178
e 43 188
e 43 195
e 43 198
e 43 200
e 43 203
e 44 45
e 44 50
e 44 51
e 44 61
e 44 65
e 44 72
e 44 73
e 44 79
e 44 85
e 44 89
e 44 95
e 44 104
e 44 109
e 44 114
e 44 116
e 44 117
e 44 122
e 44 125
e 44 142
e 44 149
e 44 160
e 44 170
e 44 171
e 44 173
e 44 175
e 44 194
e 44 197
e 45 47
e 45 50
e 45 51
e 45 53
e 45 55
e 45 56
e 45 57
e 45 59
e 45 62
e 45 64
e 45 65
e 45 66
e 45 71
e 45 72
e 45 77
e 45 78
e 45 80
e 45 81
e 45 83
e 45 92
e 45 105
e 45 106
e 45 113
e 45 115
e 45 117
e 45 124
e 45 126
e 45 142
e 45 147
e 45 149
e 45 151
e 45 154
e 45 159
e 45 161
e 45 179
e 45 182
e 45 199
e 46 62
e 46 70
e 46 76
e 46 81
e 46 89
e 46 90
e 46 95
e 46 97
e 46 100
e 46 108
e 46 110
e 46 122
e 46 129
e 46 130
e 46 145
e 46 150
e 46 156
e 46 171
e 46 183
e 46 199
e 46 201
e 47 52
e 47 55
e 47 57
e 47 62
e 47 64
e 47 67
e 47 70
e 47 75
e 47 80
e 47 124
e 47 131
e 47 140
e 47 143
e 47 148
e 47 155
e 47 162
e 47 163
e 47 181
e 47 202
e 48 49
e 48 56
e 48 59
e 48 65
e 48 66
e 48 79
e 48 80
e 48 85
e 48 91
e 48 115
e 48 116
e 48 125
e 48 129
e 48 135
e 48 141
e 48 142
e 48 157
e 48 163
e 48 164
e 48 171
e 48 184
e 48 185
e 48 190
e 48 192
e 48 202
e 49 50
e 49 58
e 49 61
e 49 62
e 49 73
e 49 91
e 49 93
e 49 95
e 49 106
e 49 114
e 49 116
e 49 124
e 49 131
e 49 146
e 49 159
e 49 176
e 49 202
e 50 55
e 50 58
e 50 72
e 50 74
e 50 78
e 50 81
e 50 102
e 50 107
e 50 113
e 50 188
e 50 200
e 50 202
e 51 57
e 51 62
e 51 66
e 51 68
e 51 69
e 51 79
e 51 84
e 51 86
e 51 91
e 51 92
e 51 95
e 51 108
e 51 111
e 51 124
e 51 126
e 51 137
e 51 139
e 51 158
e 51 180
e 51 184
e 51 186
e 51 190
e 51 191
e 51 192
e 51 200
e 52 54
e 52 59
e 52 65
e 52 68
e 52 72
e 52 84
e 52 85
e 52 94
e 52 96
e 52 97
e 52 110
e 52 115
e 52 117
e 52 134
e 52 136
e 52 146
e 52 149
e 52 153
e 52 156
e 52 161
e 52 163
e 52 164
e 52 170
e 52 172
e 52 176
e 52 188
e 52 197
e 52 201
e 53 57
e 53 77
e 53 90
e 53 96
e 53 97
e 53 103
e 53 113
e 53 120
e 53 123
e 53 137
e 53 139
e 53 144
e 53 148
e 53 151
e 53 154
e 53 159
e 53 170
e 53 189
e 54 62
e 54 63
e 54 64
e 54 69
e 54 70
e 54 72
e 54 76
e 54 77
e 54 86
e 54 89
e 54 94
e 54 99
e 54 107
e 54 115
e 54 120
e 54 126
e 54 127
e 54 130
e 54 135
e 54 136
e 54 141
e 54 148
e 54 156
e 54 158
e 54 163
e 54 170
e 54 175
e 54 184
e 54 196
e 54 201
e 55 56
e 55 58
e 55 68
e 55 69
e 55 73
e 55 89
e 55 94
e 55 95
e 55 100
e 55 101
e 55 108
e 55 111
e 55 115
e 55 118
e 55 122
e 55 129
e 55 132
e 55 149
e 55 157
e 55 169
e 55 177
e 55 180
e 55 181
e 55 192
e 56 59
e 56 60
e 56 63
e 56 78
e 56 79
e 56 92
e 56 98
e 56 99
e 56 103
e 56 110
e 56 114
e 56 117
e 56 120
e 56 127
e 56 130
e 56 140
e 56 146
e 56 147
e 56 149
e 56 158
e 56 163
e 56 169
e 56 177
e 56 186
e 57 69
e 57 71
e 57 75
e 57 87
e 57 93
e 57 101
e 57 103
e 57 111
e 57 114
e 57 144
e 57 153
e 57 161
e 57 163
e 57 176
e 57 180
e 57 191
e 57 192
e 57 195
e 57 198
e 58 60
e 58 64
e 58 75
e 58 88
e 58 99
e 58 100
e 58 119
e 58 137
e 58 138
e 58 155
e 58 188
e 58 194
e 58 196
e 59 67
e 59 70
e 59 73
e 59 90
e 59 95
e 59 102
e 59 113
e 59 117
e 59 123
e 59 134
e 59 142
e 59 154
e 59 161
e 59 164
e 59 171
e 59 174
e 59 180
e 59 195
e 59 197
e 60 62
e 60 69
e 60 73
e 60 83
e 60 88
e 60 92
e 60 99
e 60 114
e 60 126
e 60 129
e 60 131
e 60 140
e 60 146
e 60 172
e 60 188
e 60 196
e 60 200
e 61 68
e 61 71
e 61 75
e 61 77
e 61 79
e 61 88
e 61 98
e 61 126
e 61 185
e 61 186
e 62 73
e 62 83
e 62 90
e 62 96
e 62 110
e 62 112
e 62 116
e 62 121
e 62 127
e 62 163
e 62 181
e 62 185
e 62 200
e 62 202
e 63 66
e 63 67
e 63 87
e 63 102
e 63 107
e 63 111
e 63 112
e 63 117
e 63 132
e 63 140
e 63 150
e 63 160
e 63 165
e 63 167
e 63 192
e 64 67
e 64 71
e 64 72
e 64 73
e 64 76
e 64 80
e 64 84
e 64 85
e 64 99
e 64 105
e 64 107
e 64 118
e 64 119
e 64 121
e 64 128
e 64 151
e 64 152
e 64 169
e 64 192
e 64 194
e 64 201
e 65 76
e 65 77
e 65 82
e 65 86
e 65 97
e 65 100
e 65 116
e 65 147
e 65 163
e 65 170
e 65 195
e 65 203
e 66 67
e 66 74
e 66 76
e 66 80
e 66 81
e 66 86
e 66 113
e 66 114
e 66 126
e 66 127
e 66 137
e 66 146
e 66 159
e 66 160
e 66 168
e 66 199
e 66 202
e 67 68
e 67 70
e 67 73
e 67 74
e 67 78
e 67 81
e 67 82
e 67 85
e 67 87
e 67 89
e 67 95
e 67 100
e 67 101
e 67 113
e 67 120
e 67 122
e 67 138
e 67 139
e 67 144
e 67 151
e 67 167
e 67 172
e 67 186
e 67 197
e 68 73
e 68 111
e 68 129
e 68 137
e 68 169
e 68 176
e 68 190
e 68 191
e 69 70
e 69 80
e 69 91
e 69 94
e 69 97
e 69 121
e 69 142
e 69 160
e 69 163
e 69 178
e 69 181
e 69 199
e 70 73
e 70 75
e 70 79
e 70 91
e 70 92
e 70 96
e 70 98
e 70 100
e 70 114
e 70 122
e 70 126
e 70 128
e 70 130
e 70 138
e 70 147
e 70 149
e 70 150
e 70 173
e 70 179
e 70 184
e 70 193
e 71 72
e 71 78
e 71 79
e 71 84
e 71 98
e 71 100
e 71 108
e 71 117
e 71 125
e 71 133
e 71 138
e 71 141
e 71 169
e 71 173
e 71 193
e 71 198
e 72 85
e 72 113
e 72 128
e 72 133
e 72 137
e 72 152
e 72 182
e 72 189
e 72 197
e 73 74
e 73 92
e 73 93
e 73 94
e 73 120
e 73 137
e 73 143
e 73 166
e 73 177
e 74 97
e 74 106
e 74 114
e 74 120
e 74 144
e 74 157
e 74 162
e 74 175
e 74 185
e 74 189
e 75 93
e 75 101
e 75 136
e 75 150
e 75 151
e 75 157
e 75 177
e 75 196
e 76 91
e 76 120
e 76 128
e 76 132
e 76 142
e 76 143
e 76 156
e 77 86
e 77 92
e 77 94
e 77 100
e 77 105
e 77 114
e 77 118
e 77 119
e 77 128
e 77 129
e 77 134
e 77 141
e 77 145
e 77 146
e 77 149
e 77 152
e 77 159
e 77 161
e 77 166
e 77 177
e 77 198
e 78 81
e 78 106
e 78 127
e 78 137
e 78 143
e 78 150
e 78 163
e 78 193
e 78 196
e 79 87
e 79 89
e 79 99
e 79 114
e 79 133
e 79 166
e 79 176
e 80 84
e 80 91
e 80 95
e 80 96
e 80 98
e 80 107
e 80 109
e 80 116
e 80 130
e 80 132
e 80 136
e 80 138
e 80 139
e 80 140
e 80 142
e 80 145
e 80 156
e 80 161
e 80 166
e 80 180
e 80 187
e 80 193
e 81 83
e 81 84
e 81 90
e 81 91
e 81 101
e 81 115
e 81 132
e 81 135
e 81 159
e 81 164
e 81 165
e 81 167
e 81 169
e 81 177
e 81 190
e 82 88
e 82 94
e 82 100
e 82 109
e 82 129
e 82 131
e 82 132
e 82 133
e 82 135
e 82 138
e 82 156
e 82 161
e 82 172
e 82 176
e 83 86
e 83 87
e 83 88
e 83 121
e 83 122
e 83 123
e 83 126
e 83 131
e 83 149
e 83 167
e 83 168
e 83 174
e 83 176
e 83 179
e 83 184
e 83 189
e 83 198
e 84 85
e 84 87
e 84 91
e 84 96
e 84 122
e 84 125
e 84 130
e 84 142
e 84 150
e 84 170
e 84 177
e 85 89
e 85 90
e 85 93
e 85 99
e 85 113
e 85 118
e 85 119
e 85 133
e 85 144
e 85 151
e 85 153
e 85 182
e 86 97
e 86 100
e 86 101
e 86 104
e 86 106
e 86 107
e 86 110
e 86 124
e 86 138
e 86 152
e 86 154
e 86 172
e 86 192
e 87 90
e 87 107
e 87 138
e 87 145
e 87 157
e 87 161
e 87 165
e 87 166
e 87 191
e 87 199
e 88 97
e 88 104
e 88 110
e 88 112
e 88 115
e 88 128
e 88 131
e 88 152
e 88 183
e 88 201
e 89 99
e 89 101
e 89 102
e 89 103
e 89 108
e 89 110
e 89 129
e 89 134
e 89 142
e 89 167
e 89 168
e 89 170
e 89 187
e 89 192
e 90 140
e 90 170
e 91 102
e 91 105
e 91 117
e 91 118
e 91 119
e 91 122
e 91 176
e 91 187
e 92 96
e 92 101
e 92 104
e 92 120
e 92 133
e 92 142
e 92 148
e 92 168
e 92 170
e 92 171
e 92 172
e 92 173
e 92 175
e 92 189
e 92 203
e 93 96
e 93 101
e 93 102
e 93 104
e 93 108
e 93 110
e 93 111
e 93 115
e 93 128
e 93 133
e 93 134
e 93 152
e 93 159
e 93 170
e 93 177
e 93 178
e 93 187
e 93 194
e 93 199
e 94 97
e 94 110
e 94 150
e 94 159
e 94 181
e 94 182
e 94 185
e 94 199
e 95 98
e 95 102
e 95 116
e 95 123
e 95 138
e 95 182
e 95 184
e 95 190
e 96 97
e 96 98
e 96 104
e 96 113
e 96 121
e 96 148
e 97 119
e 97 128
e 97 130
e 97 131
e 97 141
e 97 152
e 97 166
e 97 173
e 97 183
e 97 200
e 98 101
e 98 120
e 98 132
e 98 133
e 98 151
e 98 159
e 98 167
e 98 169
e 98 174
e 98 178
e 98 195
e 99 110
e 99 129
e 99 136
e 99 149
e 99 160
e 99 173
e 99 179
e 100 118
e 100 140
e 100 147
e 100 150
e 100 151
e 100 160
e 100 188
e 101 109
e 101 112
e 101 121
e 101 126
e 101 184
e 101 197
e 102 105
e 102 107
e 102 108
e 102 124
e 102 139
e 102 144
e 102 166
e 102 174
e 102 184
e 103 117
e 103 127
e 103 145
e 103 153
e 103 155
e 103 170
e 103 173
e 103 201
e 104 119
e 104 120
e 104 124
e 104 136
e 104 149
e 104 154
e 105 115
e 105 118
e 105 131
e 105 141
e 105 145
e 105 152
e 105 160
e 105 176
e 105 178
e 105 194
e 106 108
e 107 115
e 107 124
e 107 131
e 107 147
e 107 150
e 107 183
e 108 113
e 108 121
e 108 126
e 108 127
e 108 144
e 108 151
e 108 181
e 108 188
e 108 197
e 109 114
e 109 116
e 109 153
e 109 158
e 109 159
e 109 161
e 109 162
e 109 174
e 109 175
e 109 181
e 109 182
e 110 112
e 110 122
e 110 125
e 110 127
e 110 130
e 110 137
e 110 139
e 110 150
e 110 155
e 110 167
e 110 191
e 110 196
e 110 203
e 111 116
e 111 160
e 111 173
e 111 176
e 111 192
e 112 134
e 113 122
e 113 132
e 113 137
e 113 145
e 113 153
e 113 165
e 113 167
e 113 173
e 113 174
e 113 175
e 113 181
e 113 193
e 114 124
e 114 130
e 114 140
e 114 144
e 114 148
e 114 152
e 114 165
e 114 167
e 114 174
e 114 191
e 115 121
e 115 135
e 115 163
e 115 191
e 116 119
e 116 136
e 116 155
e 116 160
e 116 168
e 116 172
e 117 147
e 117 155
e 117 157
e 117 160
e 117 171
e 118 123
e 118 141
e 118 142
e 118 164
e 118 201
e 119 184
e 119 185
e 119 190
e 119 203
e 120 135
e 120 141
e 120 149
e 120 158
e 120 194
e 121 123
e 121 127
e 121 144
e 121 148
e 121 150
e 121 166
e 121 198
e 121 199
e 121 202
e 122 137
e 122 138
e 122 179
e 123 131
e 123 162
e 123 175
e 123 193
e 124 143
e 124 145
e 124 146
e 124 153
e 124 162
e 124 179
e 124 201
e 125 129
e 125 140
e 125 141
e 125 144
e 125 201
e 126 149
e 126 151
e 126 186
e 126 189
e 127 129
e 127 151
e 127 160
e 127 198
e 128 165
e 128 170
e 128 181
e 128 191
e 129 131
e 130 132
e 130 142
e 130 164
e 130 169
e 130 196
e 131 133
e 131 182
e 131 196
e 132 155
e 132 169
e 132 184
e 133 134
e 133 140
e 133 145
e 133 168
e 133 189
e 134 139
e 134 157
e 134 162
e 134 179
e 134 180
e 135 139
e 135 143
e 135 148
e 135 155
e 135 177
e 135 200
e 136 141
e 136 143
e 136 162
e 136 166
e 136 170
e 136 193
e 136 202
e 137 143
e 137 164
e 137 173
e 138 140
e 138 148
e 138 156
e 138 160
e 138 163
e 138 194
e 139 203
e 140 162
e 140 165
e 140 169
e 140 177
e 140 186
e 140 199
e 141 160
e 141 174
e 141 193
e 142 147
e 142 148
e 142 155
e 142 169
e 142 174
e 142 181
e 142 191
e 143 156
e 143 169
e 143 178
e 143 187
e 143 198
e 144 176
e 144 183
e 144 186
e 145 195
e 146 156
e 146 175
e 147 148
e 147 165
e 148 158
e 149 171
e 149 175
e 149 195
e 150 169
e 150 172
e 151 158
e 151 193
e 151 194
e 151 200
e 152 155
e 152 160
e 152 178
e 152 180
e 152 183
e 152 193
e 153 182
e 153 186
e 154 155
e 154 159
e 155 156
e 155 158
e 155 178
e 155 184
e 155 185
e 156 168
e 156 178
e 156 183
e 156 185
e 156 186
e 156 190
e 156 195
e 157 178
e 158 175
e 158 177
e 158 180
e 158 182
e 158 197
e 158 202
e 159 165
e 159 171
e 159 178
e 159 180
e 159 190
e 160 174
e 160 187
e 160 202
e 161 193
e 162 174
e 163 197
e 164 165
e 166 187
e 166 192
e 166 197
e 167 179
e 168 186
e 168 194
e 169 190
e 170 175
e 170 195
e 170 198
e 170 199
e 170 203
e 171 186
e 172 181
e 172 189
e 172 198
e 173 183
e 173 188
e 175 194
e 178 189
e 179 186
e 179 187
e 179 201
e 180 188
e 180 202
e 181 192
e 182 190
e 182 194
e 184 187
e 185 202
e 186 200
e 186 201
e 188 195
e 192 197
e 194 199
e 195 201
